x
20
1
2
1
2
1
2
1
2
1
10
14
10
14
10
1
10
14
10
14
10
14
21
29
21
29
32
30
32
29
21
29
30
29
30
32
30
29
30
29
21
29
21
14
10
1
10
14
10
1
14
21
29
32
30
32
30
29
30
32
29
26
25
26
25
26
25
23
25
23
25
23
25
26
25
26
25
23
20
23
25
23
20
22
24
22
20
22
24
22
24
22
24
22
24
22
20
15
7
8
9
8
9
8
7
6
7
6
7
3
7
3
5
3
4
1
2
1
4
3
5
3
7
6
7
8
9
8
7
6
7
6
7
9
8
9
8
9
8
9
8
9
8
9
8
7
15
13
15
13
15
13
15
13
15
13
15
13
15
13
15
13
15
13
15
20
22
24
28
27
31
36
31
36
31
28
24
22
28
16
12
11
12
16
12
16
12
19
12
11
12
16
17
19
12
19
18
17
19
18
19
18
19
12
16
12
19
12
16
19
18
19
28
27
28
27
28
27
28
31
36
31
36
31
34
33
34
33
34
33
38
34
31
36
31
34
33
38
35
38
37
38
34
33
34
38
35
38
37
38
37
38
37
38
37
38
33
34
31
36
31
28
22
24
22
20
23
20
25
23
20
23
